82 82
46 31
9 35
12 27
77 21
70 38
13 27
63 32
61 30
11 14
38 7
21 26
1 22
62 9
30 13
81 2
43 12
41 26
39 25
58 17
26 29
27 14
59 39
57 10
20 6
75 1
32 19
15 33
74 41
79 12
28 13
14 2
19 34
72 11
29 28
47 24
76 4
8 34
34 31
51 15
40 37
78 39
60 6
80 18
24 29
53 9
65 36
3 10
54 19
35 4
25 38
18 3
10 30
66 11
45 18
69 7
23 40
73 5
33 32
7 8
37 3
64 36
49 17
67 20
82 41
4 1
36 37
55 40
68 5
16 16
5 35
22 22
71 21
31 24
17 23
2 33
44 20
56 28
42 23
6 15
52 8
50 25
48 16
